NAME : Test primer - ipanasiuk
CAPACITY : 2
NODE_COORD_SECTION 
n0 235 136
n1 334 127
n2 242 21
n3 452 301
n4 251 378
DEMAND_SECTION 
n0 0
n1 1 
n2 1 
n3 1 
n4 1
DEPOT_SECTION
TIME_SECTION
n0 n1 10
n0 n2 1
n0 n3 8
n0 n4 2
n1 n2 1
n1 n3 2
n1 n4 31
n2 n3 54
n2 n4 18
n3 n4 300
